
Gurobi 7.5.2 (linux64) logging started Sat Jul  7 16:00:13 2018

Changed value of parameter LogFile to result/ilp/simNo_4-n_100-m_40-s_4-minVAF_0.05-cov_10000-k_2-fn_0.10-fp_0.0001-na_0.15.ILP.gurobiSolverLog
   Prev: gurobi.log  Default: 
Changed value of parameter TimeLimit to 86400.0
   Prev: 1e+100  Min: 0.0  Max: 1e+100  Default: 1e+100
Optimize a model with 639293 rows, 10765 columns and 1940420 nonzeros
Variable types: 0 continuous, 10765 integer (10765 binary)
Coefficient statistics:
  Matrix range     [4e-04, 4e+00]
  Objective range  [5e-01, 9e+00]
  Bounds range     [1e+00, 1e+00]
  RHS range        [3e-01, 2e+00]
Found heuristic solution: objective -18383.63977
Presolve removed 125826 rows and 999 columns (presolve time = 5s) ...
Presolve removed 126380 rows and 999 columns (presolve time = 10s) ...
Presolve removed 181780 rows and 1553 columns (presolve time = 16s) ...
Presolve removed 181780 rows and 1553 columns
Presolve time: 15.69s
Presolved: 457513 rows, 9212 columns, 1375912 nonzeros
Variable types: 0 continuous, 9212 integer (9212 binary)
Presolved: 9212 rows, 466725 columns, 1385124 nonzeros

Presolve removed 9212 rows and 466725 columns

Root simplex log...

Iteration    Objective       Primal Inf.    Dual Inf.      Time
       0    1.1360744e+01   0.000000e+00   8.954400e+04     20s
    5202   -5.8907753e+01   0.000000e+00   9.226393e+04     20s
   24139   -3.5721632e+02   0.000000e+00   4.212598e+05     25s
   40731   -4.1265615e+02   0.000000e+00   9.940295e+03     30s
   44594   -4.2100421e+02   0.000000e+00   0.000000e+00     32s
   44594   -4.2100421e+02   0.000000e+00   0.000000e+00     33s

Root relaxation: objective -4.210042e+02, 44594 iterations, 15.35 seconds
Total elapsed time = 102.67s
Total elapsed time = 172.79s
Total elapsed time = 229.13s

    Nodes    |    Current Node    |     Objective Bounds      |     Work
 Expl Unexpl |  Obj  Depth IntInf | Incumbent    BestBd   Gap | It/Node Time

     0     0 -421.00421    0 1355 -18383.640 -421.00421  97.7%     -  245s
H    0     0                    -584.3290185 -421.00421  28.0%     -  247s
H    0     0                    -532.7527626 -421.00421  21.0%     -  249s
     0     0 -425.91623    0 1348 -532.75276 -425.91623  20.1%     -  288s
     0     0 -425.91623    0 1346 -532.75276 -425.91623  20.1%     -  305s
     0     0 -431.32121    0 1325 -532.75276 -431.32121  19.0%     -  577s
H    0     0                    -510.6486530 -431.32121  15.5%     -  593s
     0     0 -431.53955    0 1384 -510.64865 -431.53955  15.5%     -  698s
     0     0 -431.77993    0 1400 -510.64865 -431.77993  15.4%     -  843s
     0     0 -431.82554    0 1391 -510.64865 -431.82554  15.4%     -  891s
     0     0 -431.85147    0 1336 -510.64865 -431.85147  15.4%     -  942s
     0     0 -431.85874    0 1334 -510.64865 -431.85874  15.4%     -  966s
     0     0 -431.86585    0 1405 -510.64865 -431.86585  15.4%     -  988s
     0     0 -431.86585    0 1405 -510.64865 -431.86585  15.4%     -  992s
     0     0 -434.50479    0 1256 -510.64865 -434.50479  14.9%     - 2185s
     0     0 -435.74028    0 1326 -510.64865 -435.74028  14.7%     - 3695s
     0     0 -435.91710    0 1371 -510.64865 -435.91710  14.6%     - 3802s
     0     0 -435.97806    0 1320 -510.64865 -435.97806  14.6%     - 3822s
     0     0 -437.04571    0 1278 -510.64865 -437.04571  14.4%     - 4546s
H    0     0                    -498.3685920 -437.04571  12.3%     - 4568s
     0     0 -437.87912    0 1420 -498.36859 -437.87912  12.1%     - 4707s
     0     0 -438.17050    0 1411 -498.36859 -438.17050  12.1%     - 4817s
     0     0 -438.37517    0 1413 -498.36859 -438.37517  12.0%     - 4852s
     0     0 -438.37846    0 1430 -498.36859 -438.37846  12.0%     - 4885s
     0     0 -438.38419    0 1398 -498.36859 -438.38419  12.0%     - 4924s
     0     0 -438.38479    0 1416 -498.36859 -438.38479  12.0%     - 4942s
     0     0 -439.13253    0 1413 -498.36859 -439.13253  11.9%     - 5118s
     0     0 -439.82851    0 1426 -498.36859 -439.82851  11.7%     - 5251s
     0     0 -440.04975    0 1421 -498.36859 -440.04975  11.7%     - 5316s
     0     0 -440.05173    0 1429 -498.36859 -440.05173  11.7%     - 5332s
     0     0 -440.05847    0 1429 -498.36859 -440.05847  11.7%     - 5344s
     0     0 -440.05914    0 1430 -498.36859 -440.05914  11.7%     - 5355s
     0     0 -442.85575    0 1214 -498.36859 -442.85575  11.1%     - 5848s
     0     0 -443.29740    0 1220 -498.36859 -443.29740  11.1%     - 6015s
     0     0 -443.35772    0 1224 -498.36859 -443.35772  11.0%     - 6074s
     0     0 -443.35772    0 1222 -498.36859 -443.35772  11.0%     - 6078s
     0     0 -444.58573    0 1215 -498.36859 -444.58573  10.8%     - 6337s
     0     0 -444.58573    0 1217 -498.36859 -444.58573  10.8%     - 6366s
     0     0 -446.17833    0 1125 -498.36859 -446.17833  10.5%     - 7134s
     0     0 -446.79234    0 1108 -498.36859 -446.79234  10.3%     - 7285s
     0     0 -447.20167    0 1127 -498.36859 -447.20167  10.3%     - 7533s
     0     0 -447.20167    0 1129 -498.36859 -447.20167  10.3%     - 7548s
     0     0 -448.02034    0 1213 -498.36859 -448.02034  10.1%     - 8167s
H    0     0                    -493.4565677 -448.02034  9.21%     - 8197s
     0     0 -448.45014    0 1258 -493.45657 -448.45014  9.12%     - 8293s
     0     0 -448.73668    0 1250 -493.45657 -448.73668  9.06%     - 8368s
     0     0 -448.85363    0 1251 -493.45657 -448.85363  9.04%     - 8385s
     0     0 -448.85363    0 1247 -493.45657 -448.85363  9.04%     - 8388s
     0     0 -450.88569    0 1308 -493.45657 -450.88569  8.63%     - 8676s
     0     0 -450.88569    0 1305 -493.45657 -450.88569  8.63%     - 8724s
     0     0 -452.76863    0 1133 -493.45657 -452.76863  8.25%     - 18944s
     0     0 -452.79592    0 1216 -493.45657 -452.79592  8.24%     - 18995s
     0     0 -452.83003    0 1275 -493.45657 -452.83003  8.23%     - 19012s
     0     0 -452.83003    0 1277 -493.45657 -452.83003  8.23%     - 19016s
     0     0 -454.05804    0 1280 -493.45657 -454.05804  7.98%     - 19042s
H    0     0                    -491.0005555 -454.05804  7.52%     - 19081s
     0     0 -454.05804    0 1279 -491.00056 -454.05804  7.52%     - 19084s
     0     0 -455.61059    0 1264 -491.00056 -455.61059  7.21%     - 19659s
     0     0 -455.90005    0 1254 -491.00056 -455.90005  7.15%     - 19831s
     0     0 -455.90005    0 1254 -491.00056 -455.90005  7.15%     - 19836s
     0     0 -456.73919    0 1250 -491.00056 -456.73919  6.98%     - 20268s
     0     0 -457.42017    0 1262 -491.00056 -457.42017  6.84%     - 20965s
     0     0 -457.47599    0 1245 -491.00056 -457.47599  6.83%     - 21017s
     0     0 -457.47599    0 1251 -491.00056 -457.47599  6.83%     - 21023s
     0     0 -458.00228    0 1271 -491.00056 -458.00228  6.72%     - 21265s
     0     0 -458.39699    0 1259 -491.00056 -458.39699  6.64%     - 21551s
     0     0 -458.49933    0 1261 -491.00056 -458.49933  6.62%     - 21641s
     0     0 -458.49933    0 1270 -491.00056 -458.49933  6.62%     - 21645s
     0     0 -460.74414    0 1294 -491.00056 -460.74414  6.16%     - 23998s
     0     0 -461.35298    0 1294 -491.00056 -461.35298  6.04%     - 24701s
     0     0 -461.44788    0 1305 -491.00056 -461.44788  6.02%     - 24779s
     0     0 -461.52841    0 1303 -491.00056 -461.52841  6.00%     - 24844s
     0     0 -461.52841    0 1298 -491.00056 -461.52841  6.00%     - 24851s
     0     0 -462.75642    0 1267 -491.00056 -462.75642  5.75%     - 28473s
     0     0 -462.75642    0 1275 -491.00056 -462.75642  5.75%     - 28517s
     0     0 -462.75642    0 1283 -491.00056 -462.75642  5.75%     - 28539s
     0     0 -463.67742    0 1253 -491.00056 -463.67742  5.56%     - 29769s
     0     0 -463.67742    0 1286 -491.00056 -463.67742  5.56%     - 29776s
     0     0 -464.47562    0 1262 -491.00056 -464.47562  5.40%     - 30333s
     0     0 -464.74012    0 1269 -491.00056 -464.74012  5.35%     - 30416s
     0     0 -464.80309    0 1267 -491.00056 -464.80309  5.34%     - 30436s
     0     0 -464.80309    0 1270 -491.00056 -464.80309  5.34%     - 30439s
     0     0 -464.90543    0 1188 -491.00056 -464.90543  5.31%     - 30467s
     0     0 -465.31686    0 1247 -491.00056 -465.31686  5.23%     - 30925s
     0     0 -465.43570    0 1237 -491.00056 -465.43570  5.21%     - 30933s
     0     0 -465.43570    0 1235 -491.00056 -465.43570  5.21%     - 30935s
     0     0 -467.50557    0 1301 -491.00056 -467.50557  4.79%     - 31414s
     0     0 -467.75031    0 1275 -491.00056 -467.75031  4.74%     - 31445s
     0     0 -467.75031    0 1286 -491.00056 -467.75031  4.74%     - 31449s
     0     0 -468.89645    0 1259 -491.00056 -468.89645  4.50%     - 31585s
     0     0 -468.89645    0 1268 -491.00056 -468.89645  4.50%     - 31604s
     0     0 -469.46952    0 1281 -491.00056 -469.46952  4.39%     - 32319s
     0     0 -469.87885    0 1277 -491.00056 -469.87885  4.30%     - 32379s
     0     0 -469.87885    0 1278 -491.00056 -469.87885  4.30%     - 32382s
     0     0 -470.03349    0 1300 -491.00056 -470.03349  4.27%     - 32436s
     0     0 -470.04258    0 1298 -491.00056 -470.04258  4.27%     - 32460s
     0     0 -470.04258    0 1303 -491.00056 -470.04258  4.27%     - 32463s
     0     0 -470.45192    0 1302 -491.00056 -470.45192  4.19%     - 32583s
     0     0 -471.02499    0 1303 -491.00056 -471.02499  4.07%     - 32750s
     0     0 -471.09516    0 1302 -491.00056 -471.09516  4.05%     - 32808s
     0     0 -471.09516    0 1310 -491.00056 -471.09516  4.05%     - 32811s
     0     0 -471.23338    0 1313 -491.00056 -471.23338  4.03%     - 32930s
     0     0 -471.55713    0 1250 -491.00056 -471.55713  3.96%     - 33154s
     0     0 -471.63584    0 1252 -491.00056 -471.63584  3.94%     - 33176s
     0     0 -471.69882    0 1266 -491.00056 -471.69882  3.93%     - 33224s
     0     0 -471.72086    0 1267 -491.00056 -471.72086  3.93%     - 33235s
     0     0 -471.72086    0 1269 -491.00056 -471.72086  3.93%     - 33238s
     0     0 -471.72086    0 1273 -491.00056 -471.72086  3.93%     - 33248s
     0     0 -471.72086    0 1257 -491.00056 -471.72086  3.93%     - 33273s
     0     0 -471.72086    0 1286 -491.00056 -471.72086  3.93%     - 33283s
     0     0 -471.74107    0 1286 -491.00056 -471.74107  3.92%     - 33341s
     0     0 -471.74107    0 1287 -491.00056 -471.74107  3.92%     - 33344s
     0     0 -471.97002    0 1293 -491.00056 -471.97002  3.88%     - 34025s
     0     0 -472.02445    0 1306 -491.00056 -472.02445  3.86%     - 34075s
     0     0 -472.02445    0 1310 -491.00056 -472.02445  3.86%     - 34077s
     0     0 -472.02445    0 1314 -491.00056 -472.02445  3.86%     - 34085s
     0     0 -472.02445    0 1314 -491.00056 -472.02445  3.86%     - 34110s
     0     0 -472.02445    0 1313 -491.00056 -472.02445  3.86%     - 34118s
     0     0 -472.02445    0 1316 -491.00056 -472.02445  3.86%     - 34142s
     0     0 -472.02445    0 1287 -491.00056 -472.02445  3.86%     - 34437s
     0     0 -472.02445    0 1287 -491.00056 -472.02445  3.86%     - 34497s
     0     2 -472.02576    0 1279 -491.00056 -472.02576  3.86%     - 34868s
     1     3 -472.66207    1 1230 -491.00056 -472.02701  3.86%  8022 34912s
     2     4 -472.96907    1  855 -491.00056 -472.66207  3.73%  6804 34956s
     3     5 -473.05277    2  836 -491.00056 -472.66207  3.73%  4838 34962s
     4     4     cutoff    3      -491.00056 -472.66207  3.73% 17278 35419s
     5     5 -473.19447    3  815 -491.00056 -472.66207  3.73% 13886 35422s
     6     6 -473.93335    4  835 -491.00056 -472.66207  3.73% 12052 35441s
     7     5     cutoff    4      -491.00056 -472.66207  3.73% 20766 36199s
     8     6 -474.42247    5  771 -491.00056 -472.66207  3.73% 18701 36303s
     9     7 -474.88912    6  789 -491.00056 -472.66207  3.73% 16723 36326s
    10     8 -475.37139    7  779 -491.00056 -472.66207  3.73% 15121 36334s
    11     9 -487.93073    7  449 -491.00056 -472.66207  3.73% 15744 36530s
    13     9     cutoff    8      -491.00056 -472.66207  3.73% 15310 36827s
    14    10 -476.61534    9  735 -491.00056 -472.66207  3.73% 14499 36858s
    15    11 -477.31706   10  722 -491.00056 -472.66207  3.73% 13626 36867s
    16    10     cutoff   10      -491.00056 -472.66207  3.73% 16166 37376s
    17    11 -478.46197   11  731 -491.00056 -472.66207  3.73% 15386 37388s
    18    12 -478.79724   12  723 -491.00056 -472.66207  3.73% 14558 37399s
    19    11     cutoff   12      -491.00056 -472.66207  3.73% 14966 37603s
    21    11     cutoff   13      -491.00056 -472.66207  3.73% 14149 37697s
    23    13 -480.03622   15  716 -491.00056 -472.66207  3.73% 12931 37700s
    24    14 -480.56250   16  712 -491.00056 -472.66207  3.73% 12417 37766s
    25    15 -481.17651   17  713 -491.00056 -472.66207  3.73% 11946 37770s
    26    14     cutoff   18      -491.00056 -472.66207  3.73% 12478 37999s
    27    15 -482.48126   18  708 -491.00056 -472.66207  3.73% 12061 38024s
    28    16 -485.02070   19  687 -491.00056 -472.66207  3.73% 11750 38034s
    29    17 -487.53324   20  675 -491.00056 -472.66207  3.73% 11370 38039s
    30    18 -489.77255   20  580 -491.00056 -472.66207  3.73% 11100 38061s
    33    19 -488.89540   22  671 -491.00056 -472.66207  3.73% 10122 38066s
    38    18     cutoff   25      -491.00056 -472.66207  3.73%  8807 38070s
    40    20 -473.02932    3  827 -491.00056 -472.66207  3.73%  8400 38210s
    41    21 -488.79038    3  996 -491.00056 -472.66207  3.73% 36013 84395s

Cutting planes:
  Gomory: 1
  Zero half: 374

Explored 42 nodes (2775933 simplex iterations) in 86400.25 seconds
Thread count was 1 (of 80 available processors)

Solution count 7: -491.001 -493.457 -498.369 ... -18383.6

Time limit reached
Best objective -4.910005554961e+02, best bound -4.726620721175e+02, gap 3.7349%
